<?xml version = "1.0" standalone="yes"?>
<!-- This file has been generated by DOcplex version 2.23.222  -->
<CPLEXSolution version="1.0">
 <header
   problemName="CVRP"
   objectiveValue="18173.1"
  />
 <variables>
  <variable name="x_0_1" index="0" value="1.00000"/>
  <variable name="x_0_2" index="1" value="1.00000"/>
  <variable name="x_0_3" index="2" value="1.00000"/>
  <variable name="x_0_4" index="3" value="1.00000"/>
  <variable name="x_0_7" index="6" value="1.00000"/>
  <variable name="x_0_13" index="12" value="1.00000"/>
  <variable name="x_0_16" index="15" value="1.00000"/>
  <variable name="x_0_17" index="16" value="1.00000"/>
  <variable name="x_0_18" index="17" value="1.00000"/>
  <variable name="x_0_19" index="18" value="1.00000"/>
  <variable name="x_0_21" index="20" value="1.00000"/>
  <variable name="x_0_22" index="21" value="1.00000"/>
  <variable name="x_0_24" index="23" value="1.00000"/>
  <variable name="x_0_25" index="24" value="1.00000"/>
  <variable name="x_0_28" index="27" value="1.00000"/>
  <variable name="x_0_29" index="28" value="1.00000"/>
  <variable name="x_1_0" index="29" value="1.00000"/>
  <variable name="x_2_9" index="66" value="1.00000"/>
  <variable name="x_3_12" index="98" value="1.00000"/>
  <variable name="x_4_27" index="142" value="1.00000"/>
  <variable name="x_5_0" index="145" value="1.00000"/>
  <variable name="x_6_23" index="196" value="1.00000"/>
  <variable name="x_7_8" index="210" value="1.00000"/>
  <variable name="x_8_0" index="232" value="1.00000"/>
  <variable name="x_9_0" index="261" value="1.00000"/>
  <variable name="x_10_0" index="290" value="1.00000"/>
  <variable name="x_11_6" index="325" value="1.00000"/>
  <variable name="x_12_20" index="367" value="1.00000"/>
  <variable name="x_13_26" index="402" value="1.00000"/>
  <variable name="x_14_0" index="406" value="1.00000"/>
  <variable name="x_15_0" index="435" value="1.00000"/>
  <variable name="x_16_0" index="464" value="1.00000"/>
  <variable name="x_17_5" index="498" value="1.00000"/>
  <variable name="x_18_14" index="536" value="1.00000"/>
  <variable name="x_19_0" index="551" value="1.00000"/>
  <variable name="x_20_10" index="590" value="1.00000"/>
  <variable name="x_21_15" index="624" value="1.00000"/>
  <variable name="x_22_0" index="638" value="1.00000"/>
  <variable name="x_23_0" index="667" value="1.00000"/>
  <variable name="x_24_0" index="696" value="1.00000"/>
  <variable name="x_25_0" index="725" value="1.00000"/>
  <variable name="x_26_0" index="754" value="1.00000"/>
  <variable name="x_27_0" index="783" value="1.00000"/>
  <variable name="x_28_0" index="812" value="1.00000"/>
  <variable name="x_29_11" index="852" value="1.00000"/>
  <variable name="u_1" index="870" value="77.00000"/>
  <variable name="u_2" index="871" value="27.00000"/>
  <variable name="u_3" index="872" value="15.00000"/>
  <variable name="u_4" index="873" value="33.00000"/>
  <variable name="u_5" index="874" value="77.00000"/>
  <variable name="u_6" index="875" value="62.00000"/>
  <variable name="u_7" index="876" value="28.00000"/>
  <variable name="u_8" index="877" value="75.00000"/>
  <variable name="u_9" index="878" value="67.00000"/>
  <variable name="u_10" index="879" value="77.00000"/>
  <variable name="u_11" index="880" value="28.00000"/>
  <variable name="u_12" index="881" value="59.00000"/>
  <variable name="u_13" index="882" value="49.00000"/>
  <variable name="u_14" index="883" value="76.00000"/>
  <variable name="u_15" index="884" value="77.00000"/>
  <variable name="u_16" index="885" value="65.00000"/>
  <variable name="u_17" index="886" value="39.00000"/>
  <variable name="u_18" index="887" value="47.00000"/>
  <variable name="u_19" index="888" value="77.00000"/>
  <variable name="u_20" index="889" value="64.00000"/>
  <variable name="u_21" index="890" value="14.00000"/>
  <variable name="u_22" index="891" value="74.00000"/>
  <variable name="u_23" index="892" value="77.00000"/>
  <variable name="u_24" index="893" value="77.00000"/>
  <variable name="u_25" index="894" value="69.00000"/>
  <variable name="u_26" index="895" value="72.00000"/>
  <variable name="u_27" index="896" value="71.00000"/>
  <variable name="u_28" index="897" value="70.00000"/>
  <variable name="u_29" index="898" value="12.00000"/>
 </variables>
</CPLEXSolution>
